<?xml version = "1.0" encoding="UTF-8" standalone="yes"?>
<CPLEXSolution version="1.2">
 <header
   problemName="ILOG.CPLEX"
   solutionName="incumbent"
   solutionIndex="-1"
   objectiveValue="3"
   solutionTypeValue="3"
   solutionTypeString="primal"
   solutionStatusValue="101"
   solutionStatusString="integer optimal solution"
   solutionMethodString="mip"
   primalFeasible="1"
   dualFeasible="1"
   MIPNodes="0"
   MIPIterations="27"
   writeLevel="1"/>
 <quality
   epInt="1.0000000000000001e-05"
   epRHS="9.9999999999999995e-07"
   maxIntInfeas="0"
   maxPrimalInfeas="0"
   maxX="1"
   maxSlack="1851.0166666666667"/>
 <linearConstraints>
  <constraint name="C1_0" index="0" slack="0"/>
  <constraint name="C1_1" index="1" slack="0"/>
  <constraint name="C1_2" index="2" slack="0"/>
  <constraint name="C1_3" index="3" slack="0"/>
  <constraint name="C1_4" index="4" slack="0"/>
  <constraint name="2_0_0_0_0" index="5" slack="-6.1733653846153835"/>
  <constraint name="2_0_0_0_2" index="6" slack="-8.2700961538461559"/>
  <constraint name="2_0_0_0_4" index="7" slack="-9.9757051282051297"/>
  <constraint name="2_0_0_0_7" index="8" slack="-6.1222756410256416"/>
  <constraint name="2_0_0_1_0" index="9" slack="-6.3710256410256392"/>
  <constraint name="2_0_0_1_3" index="10" slack="-3.5519230769230776"/>
  <constraint name="2_0_0_1_5" index="11" slack="-9.5251282051282047"/>
  <constraint name="2_0_1_0_0" index="12" slack="-6.1733653846153835"/>
  <constraint name="2_0_1_0_2" index="13" slack="-8.2700961538461559"/>
  <constraint name="2_0_1_0_4" index="14" slack="-9.9757051282051297"/>
  <constraint name="2_0_1_0_7" index="15" slack="-6.1222756410256416"/>
  <constraint name="2_0_1_1_1" index="16" slack="-5.2956410256410251"/>
  <constraint name="2_0_1_1_3" index="17" slack="-8.8475641025641032"/>
  <constraint name="2_0_1_1_5" index="18" slack="-10.154102564102566"/>
  <constraint name="2_0_2_0_0" index="19" slack="-5.4032692307692294"/>
  <constraint name="2_0_2_0_3" index="20" slack="-3.3722756410256416"/>
  <constraint name="2_0_2_0_5" index="21" slack="-9.7299038461538476"/>
  <constraint name="2_0_2_0_7" index="22" slack="-8.8521794871794874"/>
  <constraint name="2_0_2_1_0" index="23" slack="-6.3467307692307688"/>
  <constraint name="2_0_3_0_0" index="24" slack="-0.15226923076922994"/>
  <constraint name="2_0_3_0_3" index="25" slack="-0.037942307692307775"/>
  <constraint name="2_0_3_0_5" index="26" slack="-0.7289038461538464"/>
  <constraint name="2_0_3_0_7" index="27" slack="-1.7678461538461532"/>
  <constraint name="2_0_3_1_1" index="28" slack="-1.1522692307692299"/>
  <constraint name="2_0_4_0_1" index="29" slack="-5.0967307692307688"/>
  <constraint name="2_0_4_0_3" index="30" slack="-8.4690064102564122"/>
  <constraint name="2_0_4_0_5" index="31" slack="-7.3266346153846147"/>
  <constraint name="2_0_4_0_7" index="32" slack="-9.9489102564102581"/>
  <constraint name="2_0_4_1_0" index="33" slack="-8.5267948717948752"/>
  <constraint name="2_0_4_1_2" index="34" slack="-10.412051282051284"/>
  <constraint name="2_0_4_1_5" index="35" slack="-6.3852564102564111"/>
  <constraint name="2_0_5_0_1" index="36" slack="-5.0967307692307688"/>
  <constraint name="2_0_5_0_3" index="37" slack="-8.4690064102564122"/>
  <constraint name="2_0_5_0_5" index="38" slack="-7.3266346153846147"/>
  <constraint name="2_0_5_0_7" index="39" slack="-9.9489102564102581"/>
  <constraint name="2_0_5_1_1" index="40" slack="-3.5519230769230776"/>
  <constraint name="2_0_5_1_3" index="41" slack="-11.139871794871796"/>
  <constraint name="2_0_5_1_5" index="42" slack="-9.5251282051282047"/>
  <constraint name="2_1_0_0_0" index="43" slack="-6.1386923076923061"/>
  <constraint name="2_1_0_0_2" index="44" slack="-11.185923076923078"/>
  <constraint name="2_1_0_0_4" index="45" slack="-11.185923076923078"/>
  <constraint name="2_1_0_0_6" index="46" slack="-8.2418717948717948"/>
  <constraint name="2_1_0_0_8" index="47" slack="0"/>
  <constraint name="2_1_0_0_11" index="48" slack="-2.7462307692307695"/>
  <constraint name="2_1_0_1_0" index="49" slack="-10.690961538461538"/>
  <constraint name="2_1_0_1_3" index="50" slack="0"/>
  <constraint name="2_1_0_1_5" index="51" slack="-5.3199358974358963"/>
  <constraint name="2_1_0_1_7" index="52" slack="-14.017596153846155"/>
  <constraint name="2_1_0_1_9" index="53" slack="-13.825384615384616"/>
  <constraint name="2_1_0_2_1" index="54" slack="-11.306538461538461"/>
  <constraint name="2_1_1_0_0" index="55" slack="-6.1386923076923061"/>
  <constraint name="2_1_1_0_2" index="56" slack="-11.185923076923078"/>
  <constraint name="2_1_1_0_4" index="57" slack="-11.185923076923078"/>
  <constraint name="2_1_1_0_6" index="58" slack="-8.2418717948717948"/>
  <constraint name="2_1_1_0_8" index="59" slack="0"/>
  <constraint name="2_1_1_0_11" index="60" slack="-2.7462307692307695"/>
  <constraint name="2_1_1_1_1" index="61" slack="-9.3090384615384618"/>
  <constraint name="2_1_1_1_3" index="62" slack="-9.3090384615384618"/>
  <constraint name="2_1_1_1_5" index="63" slack="-7.6289743589743599"/>
  <constraint name="2_1_1_1_7" index="64" slack="-7.3266346153846147"/>
  <constraint name="2_1_1_1_9" index="65" slack="-9.6344230769230776"/>
  <constraint name="2_1_1_2_1" index="66" slack="0"/>
  <constraint name="2_1_1_2_3" index="67" slack="-6.2043589743589731"/>
  <constraint name="2_1_1_2_5" index="68" slack="-16.690128205128204"/>
  <constraint name="2_1_1_2_7" index="69" slack="-16.267179487179487"/>
  <constraint name="2_1_2_0_0" index="70" slack="-9.3527692307692298"/>
  <constraint name="2_1_2_0_3" index="71" slack="0"/>
  <constraint name="2_1_2_0_5" index="72" slack="-4.7892820512820515"/>
  <constraint name="2_1_2_0_7" index="73" slack="-12.414076923076923"/>
  <constraint name="2_1_2_0_9" index="74" slack="-12.414076923076923"/>
  <constraint name="2_1_2_0_11" index="75" slack="-12.360307692307693"/>
  <constraint name="2_1_2_1_0" index="76" slack="-6.3467307692307688"/>
  <constraint name="2_1_2_1_2" index="77" slack="0"/>
  <constraint name="2_1_2_1_5" index="78" slack="-3.1155769230769232"/>
  <constraint name="2_1_2_2_1" index="79" slack="-2.3055384615384611"/>
  <constraint name="2_1_3_0_0" index="80" slack="-9.3527692307692298"/>
  <constraint name="2_1_3_0_3" index="81" slack="0"/>
  <constraint name="2_1_3_0_5" index="82" slack="-4.7892820512820515"/>
  <constraint name="2_1_3_0_7" index="83" slack="-12.414076923076923"/>
  <constraint name="2_1_3_0_9" index="84" slack="-12.414076923076923"/>
  <constraint name="2_1_3_0_11" index="85" slack="-12.360307692307693"/>
  <constraint name="2_1_3_1_1" index="86" slack="-8.6532692307692294"/>
  <constraint name="2_1_3_1_3" index="87" slack="-8.6532692307692294"/>
  <constraint name="2_1_3_1_5" index="88" slack="-10.768846153846154"/>
  <constraint name="2_1_3_2_0" index="89" slack="0"/>
  <constraint name="2_1_4_0_1" index="90" slack="-9.0472307692307687"/>
  <constraint name="2_1_4_0_3" index="91" slack="-9.0472307692307687"/>
  <constraint name="2_1_4_0_5" index="92" slack="-7.4365128205128208"/>
  <constraint name="2_1_4_0_7" index="93" slack="-7.0613076923076914"/>
  <constraint name="2_1_4_0_9" index="94" slack="-7.0613076923076914"/>
  <constraint name="2_1_4_0_11" index="95" slack="-9.4075384615384614"/>
  <constraint name="2_1_4_1_0" index="96" slack="-11.482403846153849"/>
  <constraint name="2_1_4_1_2" index="97" slack="-11.482403846153849"/>
  <constraint name="2_1_4_1_4" index="98" slack="-8.4690064102564122"/>
  <constraint name="2_1_4_1_6" index="99" slack="0"/>
  <constraint name="2_1_4_1_9" index="100" slack="-2.8077884615384616"/>
  <constraint name="2_1_4_2_1" index="101" slack="0"/>
  <constraint name="2_1_4_2_3" index="102" slack="-6.2043589743589731"/>
  <constraint name="2_1_4_2_5" index="103" slack="-16.690128205128204"/>
  <constraint name="2_1_4_2_7" index="104" slack="-16.267179487179487"/>
  <constraint name="2_1_5_0_1" index="105" slack="-9.0472307692307687"/>
  <constraint name="2_1_5_0_3" index="106" slack="-9.0472307692307687"/>
  <constraint name="2_1_5_0_5" index="107" slack="-7.4365128205128208"/>
  <constraint name="2_1_5_0_7" index="108" slack="-7.0613076923076914"/>
  <constraint name="2_1_5_0_9" index="109" slack="-7.0613076923076914"/>
  <constraint name="2_1_5_0_11" index="110" slack="-9.4075384615384614"/>
  <constraint name="2_1_5_1_1" index="111" slack="0"/>
  <constraint name="2_1_5_1_3" index="112" slack="-5.3199358974358963"/>
  <constraint name="2_1_5_1_5" index="113" slack="-14.017596153846155"/>
  <constraint name="2_1_5_1_7" index="114" slack="-14.017596153846155"/>
  <constraint name="2_1_5_1_9" index="115" slack="-13.825384615384616"/>
  <constraint name="2_1_5_2_0" index="116" slack="0"/>
  <constraint name="2_2_0_0_0" index="117" slack="-528.13461538461547"/>
  <constraint name="2_2_0_0_2" index="118" slack="-1651.5166666666671"/>
  <constraint name="2_2_0_0_5" index="119" slack="0"/>
  <constraint name="2_2_0_0_7" index="120" slack="-1293.1282051282053"/>
  <constraint name="2_2_0_0_9" index="121" slack="-1174.0653846153846"/>
  <constraint name="2_2_0_0_11" index="122" slack="-935.93974358974356"/>
  <constraint name="2_2_0_1_0" index="123" slack="-192.06053846153827"/>
  <constraint name="2_2_0_1_3" index="124" slack="-199.69899999999984"/>
  <constraint name="2_2_0_1_5" index="125" slack="-230.6528461538461"/>
  <constraint name="2_2_0_1_7" index="126" slack="-307.53746153846146"/>
  <constraint name="2_2_0_1_9" index="127" slack="-461.30669230769217"/>
  <constraint name="2_2_1_0_0" index="128" slack="-1344.2846153846153"/>
  <constraint name="2_2_1_0_3" index="129" slack="-1851.0166666666667"/>
  <constraint name="2_2_1_0_5" index="130" slack="-1851.0166666666667"/>
  <constraint name="2_2_1_0_7" index="131" slack="-742.81153846153825"/>
  <constraint name="2_2_1_0_9" index="132" slack="-990.41538461538448"/>
  <constraint name="2_2_1_0_11" index="133" slack="-1485.623076923077"/>
  <constraint name="2_2_1_1_1" index="134" slack="0"/>
  <constraint name="2_3_0_0_0" index="135" slack="-4.9031794871794876"/>
  <constraint name="2_3_0_0_3" index="136" slack="-10.570846153846155"/>
  <constraint name="2_3_0_0_5" index="137" slack="-2.6257948717948718"/>
  <constraint name="2_3_0_1_1" index="138" slack="-6.2043589743589731"/>
  <constraint name="2_3_1_0_1" index="139" slack="-0.22915384615384582"/>
  <constraint name="2_3_1_0_3" index="140" slack="-8.8817841970012523e-16"/>
  <constraint name="2_3_1_0_5" index="141" slack="-0.9216153846153845"/>
  <constraint name="2_4_0_0_0" index="142" slack="-4.7924615384615388"/>
  <constraint name="2_4_0_0_2" index="143" slack="-13.732153846153849"/>
  <constraint name="2_4_0_0_4" index="144" slack="-5.6349230769230774"/>
  <constraint name="2_4_0_0_6" index="145" slack="-5.9500000000000002"/>
  <constraint name="2_4_0_0_8" index="146" slack="-7.4236153846153838"/>
  <constraint name="2_4_0_0_11" index="147" slack="-5.6349230769230774"/>
  <constraint name="2_4_0_1_0" index="148" slack="-9.8360576923076923"/>
  <constraint name="2_4_0_1_2" index="149" slack="-7.2856730769230769"/>
  <constraint name="2_4_0_1_4" index="150" slack="-7.7016346153846147"/>
  <constraint name="2_4_0_1_6" index="151" slack="-11.970480769230772"/>
  <constraint name="2_4_0_1_9" index="152" slack="-7.7016346153846147"/>
  <constraint name="2_4_0_2_0" index="153" slack="-18.620615384615384"/>
  <constraint name="2_4_0_2_3" index="154" slack="-15.95553846153846"/>
  <constraint name="2_4_0_2_5" index="155" slack="-21.285692307692308"/>
  <constraint name="2_4_0_2_7" index="156" slack="-15.95553846153846"/>
  <constraint name="2_4_1_0_0" index="157" slack="-4.7924615384615388"/>
  <constraint name="2_4_1_0_2" index="158" slack="-13.732153846153849"/>
  <constraint name="2_4_1_0_4" index="159" slack="-5.6349230769230774"/>
  <constraint name="2_4_1_0_6" index="160" slack="-5.9500000000000002"/>
  <constraint name="2_4_1_0_8" index="161" slack="-7.4236153846153838"/>
  <constraint name="2_4_1_0_11" index="162" slack="-5.6349230769230774"/>
  <constraint name="2_4_1_1_0" index="163" slack="-14.300384615384615"/>
  <constraint name="2_4_1_1_3" index="164" slack="-12.16596153846154"/>
  <constraint name="2_4_1_1_5" index="165" slack="-16.434807692307693"/>
  <constraint name="2_4_1_1_7" index="166" slack="-7.5143269230769221"/>
  <constraint name="2_4_1_1_9" index="167" slack="-12.16596153846154"/>
  <constraint name="2_4_2_0_0" index="168" slack="-9.3688461538461532"/>
  <constraint name="2_4_2_0_2" index="169" slack="-7.1085384615384619"/>
  <constraint name="2_4_2_0_4" index="170" slack="-7.411307692307691"/>
  <constraint name="2_4_2_0_6" index="171" slack="-11.326384615384615"/>
  <constraint name="2_4_2_0_9" index="172" slack="-7.5763846153846144"/>
  <constraint name="2_4_2_0_11" index="173" slack="-7.411307692307691"/>
  <constraint name="2_4_2_1_0" index="174" slack="-4.9178021978021977"/>
  <constraint name="2_4_2_1_2" index="175" slack="-14.21736263736264"/>
  <constraint name="2_4_2_1_4" index="176" slack="-5.799890109890109"/>
  <constraint name="2_4_2_1_6" index="177" slack="-6.0357142857142856"/>
  <constraint name="2_4_2_1_9" index="178" slack="-5.799890109890109"/>
  <constraint name="2_4_2_2_0" index="179" slack="-18.620615384615384"/>
  <constraint name="2_4_2_2_3" index="180" slack="-15.95553846153846"/>
  <constraint name="2_4_2_2_5" index="181" slack="-21.285692307692308"/>
  <constraint name="2_4_2_2_7" index="182" slack="-15.95553846153846"/>
  <constraint name="2_4_3_0_0" index="183" slack="-1.7678461538461532"/>
  <constraint name="2_4_3_0_2" index="184" slack="-0.30753846153846087"/>
  <constraint name="2_4_3_0_4" index="185" slack="-1.4603076923076923"/>
  <constraint name="2_4_3_0_6" index="186" slack="-2.0753846153846158"/>
  <constraint name="2_4_3_0_9" index="187" slack="-0.075384615384614939"/>
  <constraint name="2_4_3_0_11" index="188" slack="-1.4603076923076923"/>
  <constraint name="2_4_3_1_0" index="189" slack="-2.5137252747252745"/>
  <constraint name="2_4_3_1_3" index="190" slack="-2.0743846153846146"/>
  <constraint name="2_4_3_1_5" index="191" slack="-2.9530659340659344"/>
  <constraint name="2_4_3_1_7" index="192" slack="-0.95306593406593443"/>
  <constraint name="2_4_3_1_9" index="193" slack="-2.0743846153846146"/>
  <constraint name="2_4_4_0_0" index="194" slack="-12.860307692307694"/>
  <constraint name="2_4_4_0_3" index="195" slack="-10.902769230769231"/>
  <constraint name="2_4_4_0_5" index="196" slack="-14.817846153846155"/>
  <constraint name="2_4_4_0_7" index="197" slack="-6.4914615384615377"/>
  <constraint name="2_4_4_0_9" index="198" slack="-13.267846153846154"/>
  <constraint name="2_4_4_0_11" index="199" slack="-10.902769230769231"/>
  <constraint name="2_4_4_1_0" index="200" slack="-5.0849230769230775"/>
  <constraint name="2_4_4_1_2" index="201" slack="-6.0198461538461547"/>
  <constraint name="2_4_4_1_4" index="202" slack="-6.1499999999999995"/>
  <constraint name="2_4_4_1_6" index="203" slack="-7.8472307692307695"/>
  <constraint name="2_4_4_1_9" index="204" slack="-6.0198461538461547"/>
  <constraint name="2_4_5_0_0" index="205" slack="-12.860307692307694"/>
  <constraint name="2_4_5_0_3" index="206" slack="-10.902769230769231"/>
  <constraint name="2_4_5_0_5" index="207" slack="-14.817846153846155"/>
  <constraint name="2_4_5_0_7" index="208" slack="-6.4914615384615377"/>
  <constraint name="2_4_5_0_9" index="209" slack="-13.267846153846154"/>
  <constraint name="2_4_5_0_11" index="210" slack="-10.902769230769231"/>
  <constraint name="2_4_5_1_0" index="211" slack="-11.237692307692308"/>
  <constraint name="2_4_5_1_2" index="212" slack="-8.5726153846153839"/>
  <constraint name="2_4_5_1_4" index="213" slack="-13.902769230769231"/>
  <constraint name="2_4_5_1_7" index="214" slack="-10.152769230769231"/>
  <constraint name="2_4_5_1_9" index="215" slack="-8.5726153846153839"/>
  <constraint name="c217" index="216" slack="0"/>
  <constraint name="c218" index="217" slack="0"/>
  <constraint name="c219" index="218" slack="0"/>
  <constraint name="c220" index="219" slack="0"/>
  <constraint name="c221" index="220" slack="-0.23115384615384638"/>
  <constraint name="c222" index="221" slack="-1.7688461538461535"/>
  <constraint name="c223" index="222" slack="-2"/>
  <constraint name="c224" index="223" slack="0"/>
  <constraint name="c225" index="224" slack="0"/>
  <constraint name="c226" index="225" slack="0"/>
  <constraint name="max_attributes" index="226" slack="0.00010000000000021103"/>
 </linearConstraints>
 <variables>
  <variable name="gamma_2_5_0" index="0" value="0"/>
  <variable name="gamma_2_5_1" index="1" value="0"/>
  <variable name="gamma_2_5_2" index="2" value="0"/>
  <variable name="gamma_2_4_0" index="3" value="0"/>
  <variable name="gamma_2_4_1" index="4" value="0"/>
  <variable name="gamma_2_4_2" index="5" value="0"/>
  <variable name="gamma_2_3_0" index="6" value="0"/>
  <variable name="gamma_2_3_1" index="7" value="0"/>
  <variable name="gamma_2_3_2" index="8" value="0"/>
  <variable name="gamma_2_2_0" index="9" value="0"/>
  <variable name="gamma_2_2_1" index="10" value="0"/>
  <variable name="gamma_2_2_2" index="11" value="0"/>
  <variable name="gamma_2_1_0" index="12" value="0"/>
  <variable name="gamma_2_1_1" index="13" value="0"/>
  <variable name="gamma_2_1_2" index="14" value="0"/>
  <variable name="gamma_2_0_0" index="15" value="0"/>
  <variable name="gamma_2_0_1" index="16" value="0"/>
  <variable name="gamma_2_0_2" index="17" value="0"/>
  <variable name="gamma_4_5_0" index="18" value="0"/>
  <variable name="gamma_4_5_1" index="19" value="0"/>
  <variable name="gamma_4_5_2" index="20" value="0"/>
  <variable name="gamma_4_4_0" index="21" value="0"/>
  <variable name="gamma_4_4_1" index="22" value="0"/>
  <variable name="gamma_4_4_2" index="23" value="0"/>
  <variable name="gamma_4_3_0" index="24" value="1"/>
  <variable name="gamma_4_3_1" index="25" value="1"/>
  <variable name="gamma_4_3_2" index="26" value="0"/>
  <variable name="gamma_4_2_0" index="27" value="0"/>
  <variable name="gamma_4_2_1" index="28" value="0"/>
  <variable name="gamma_4_2_2" index="29" value="0"/>
  <variable name="gamma_4_1_0" index="30" value="0"/>
  <variable name="gamma_4_1_1" index="31" value="0"/>
  <variable name="gamma_4_1_2" index="32" value="0"/>
  <variable name="gamma_4_0_0" index="33" value="0"/>
  <variable name="gamma_4_0_1" index="34" value="0"/>
  <variable name="gamma_4_0_2" index="35" value="0"/>
  <variable name="gamma_1_1_0" index="36" value="1"/>
  <variable name="gamma_1_1_1" index="37" value="0"/>
  <variable name="gamma_1_0_0" index="38" value="0"/>
  <variable name="gamma_1_0_1" index="39" value="0"/>
  <variable name="gamma_0_1_0" index="40" value="0"/>
  <variable name="gamma_0_1_1" index="41" value="0"/>
  <variable name="gamma_0_0_0" index="42" value="0"/>
  <variable name="gamma_0_0_1" index="43" value="0"/>
  <variable name="gamma_3_5_0" index="44" value="0"/>
  <variable name="gamma_3_5_1" index="45" value="0"/>
  <variable name="gamma_3_5_2" index="46" value="0"/>
  <variable name="gamma_3_4_0" index="47" value="0"/>
  <variable name="gamma_3_4_1" index="48" value="0"/>
  <variable name="gamma_3_4_2" index="49" value="0"/>
  <variable name="gamma_3_3_0" index="50" value="0"/>
  <variable name="gamma_3_3_1" index="51" value="0"/>
  <variable name="gamma_3_3_2" index="52" value="0"/>
  <variable name="gamma_3_2_0" index="53" value="0"/>
  <variable name="gamma_3_2_1" index="54" value="0"/>
  <variable name="gamma_3_2_2" index="55" value="0"/>
  <variable name="gamma_3_1_0" index="56" value="0"/>
  <variable name="gamma_3_1_1" index="57" value="0"/>
  <variable name="gamma_3_1_2" index="58" value="0"/>
  <variable name="gamma_3_0_0" index="59" value="0"/>
  <variable name="gamma_3_0_1" index="60" value="0"/>
  <variable name="gamma_3_0_2" index="61" value="0"/>
  <variable name="a_0" index="62" value="0"/>
  <variable name="a_1" index="63" value="0"/>
  <variable name="a_2" index="64" value="1"/>
  <variable name="a_3" index="65" value="1"/>
  <variable name="a_4" index="66" value="0"/>
  <variable name="s_2_5" index="67" value="0"/>
  <variable name="s_2_4" index="68" value="0"/>
  <variable name="s_2_3" index="69" value="0"/>
  <variable name="s_2_2" index="70" value="1"/>
  <variable name="s_2_1" index="71" value="0"/>
  <variable name="s_2_0" index="72" value="0"/>
  <variable name="s_4_5" index="73" value="0"/>
  <variable name="s_4_4" index="74" value="0"/>
  <variable name="s_4_3" index="75" value="1"/>
  <variable name="s_4_2" index="76" value="0"/>
  <variable name="s_4_1" index="77" value="0"/>
  <variable name="s_4_0" index="78" value="0"/>
  <variable name="s_1_1" index="79" value="1"/>
  <variable name="s_1_0" index="80" value="0"/>
  <variable name="s_0_1" index="81" value="0"/>
  <variable name="s_0_0" index="82" value="1"/>
  <variable name="s_3_5" index="83" value="0"/>
  <variable name="s_3_4" index="84" value="0"/>
  <variable name="s_3_3" index="85" value="0"/>
  <variable name="s_3_2" index="86" value="1"/>
  <variable name="s_3_1" index="87" value="0"/>
  <variable name="s_3_0" index="88" value="0"/>
  <variable name="g_0" index="89" value="0"/>
  <variable name="g_1" index="90" value="0"/>
  <variable name="g_2" index="91" value="0.76884615384615362"/>
  <variable name="g_3" index="92" value="-1"/>
  <variable name="g_4" index="93" value="0"/>
 </variables>
</CPLEXSolution>
